g3 0 1 0	# problem d4n12R3R7d01d05
 12 9 1 0 3	# vars, constraints, objectives, ranges, eqns
 4 1	# nonlinear constraints, objectives
 0 0	# network constraints: nonlinear, linear
 12 12 12	# nonlinear vars in constraints, objectives, both
 0 0 0 1	# linear network variables; functions; arith, flags
 0 0 0 0 0	# discrete variables: binary, integer, nonlinear (b,c,o)
 90 12	# nonzeros in Jacobian, gradients
 0 0	# max name lengths: constraints, variables
 0 0 0 0 0	# common exprs: b,c,o,c1,o1
b
0 0.93 2.2
0 0.21 2.26
0 0.79 2.04
0 0.83 2.02
0 0.78 2.87
0 0.93 2.93
0 0.42 2.76
0 0.97 2.21
0 0.79 2.84
0 0.98 2.95
0 0.65 2.99
0 0.29 2.88
r
2 131.186
2 979.986
2 3820.6
2 270.305
4 29.952
4 20.433
4 55.586
2 105.652
2 78.801
C0
o54
11
o2
o2
n4.3
v0
v10
o2
o2
n3.69
v1
v5
o2
o2
n3.8
v2
v3
o2
o2
n6.69
v2
v11
o16
o2
o2
n3.13
v3
v9
o16
o2
o2
n2.21
v4
v8
o2
o2
n7.05
v5
v5
o2
o2
n1.91
v5
v6
o2
v5
v9
o2
o2
n0.13
v6
v10
o2
o2
n2.37
v7
v11
C1
o54
58
o2
o2
n0.31
v0
v10
o16
o2
o2
n1.22
v1
v5
o2
o2
n8.78
v2
v3
o2
o2
n1.18
v2
v11
o2
o2
n1.35
v3
v9
o2
o2
n0.17
v4
v8
o16
o2
o2
n9.39
v5
v5
o2
o2
n2.57
v5
v6
o2
o2
n3.19
v5
v9
o16
o2
o2
n8.67
v6
v10
o2
o2
n2.66
v7
v11
o2
o2
o2
n2.74
v0
v0
v1
o16
o2
o2
o2
n2.24
v0
v1
v11
o16
o2
o2
o2
n9.88
v0
v2
v8
o2
o2
o2
n5.42
v0
v3
v6
o2
o2
o2
n9.6
v0
v4
v8
o2
o2
o2
n9.3
v0
v5
v5
o2
o2
o2
n8.86
v0
v5
v7
o2
o2
o2
n4.31
v0
v6
v11
o2
o2
o2
n2.36
v0
v7
v7
o2
o2
o2
n9.58
v0
v7
v8
o16
o2
o2
o2
n2.97
v0
v10
v10
o2
o2
o2
n9.07
v1
v2
v2
o2
o2
o2
n0.04
v1
v3
v11
o2
o2
o2
n9.02
v1
v4
v5
o2
o2
o2
n8.45
v1
v4
v8
o16
o2
o2
o2
n1.84
v1
v5
v11
o2
o2
o2
n6.19
v1
v6
v6
o2
o2
o2
n6.8
v1
v6
v7
o2
o2
o2
n3.27
v1
v11
v11
o2
o2
o2
n2.89
v2
v2
v2
o2
o2
o2
n9.85
v2
v2
v4
o2
o2
o2
n4.11
v2
v2
v9
o2
o2
o2
n6.24
v2
v3
v10
o2
o2
o2
n2.51
v2
v4
v4
o2
o2
o2
n2.8
v2
v4
v5
o2
o2
o2
n9.26
v2
v4
v10
o2
o2
o2
n2.35
v2
v5
v6
o2
o2
o2
n9.19
v2
v7
v7
o2
o2
o2
n3.04
v2
v7
v9
o2
o2
o2
n8.9
v2
v7
v11
o2
o2
o2
n4.4
v2
v9
v9
o2
o2
o2
n4.01
v3
v4
v11
o2
o2
o2
n4.48
v3
v5
v7
o2
o2
o2
n5.59
v3
v5
v10
o2
o2
o2
n0.8
v3
v7
v9
o2
o2
o2
n1.33
v3
v9
v11
o2
o2
o2
n2.96
v4
v7
v9
o2
o2
o2
n1.58
v4
v10
v10
o2
o2
o2
n9.73
v5
v5
v6
o2
o2
o2
n5.69
v5
v6
v10
o2
o2
o2
n8.44
v5
v9
v10
o2
o2
o2
n8.86
v6
v6
v9
o16
o2
o2
o2
n9.44
v6
v8
v8
o2
o2
o2
n4.96
v6
v8
v10
o2
o2
o2
n3.5
v6
v9
v10
o2
o2
o2
n5.44
v7
v10
v11
o2
o2
o2
n4.91
v8
v8
v10
C2
o54
181
o2
o2
n8.16
v0
v10
o2
o2
n2.46
v1
v5
o2
o2
n2.78
v2
v3
o16
o2
o2
n2.44
v2
v11
o2
o2
n6.35
v3
v9
o2
o2
n6.53
v4
v8
o2
o2
n4.43
v5
v5
o2
o2
n4.97
v5
v6
o2
o2
n1.7
v5
v9
o2
o2
n2.76
v6
v10
o2
o2
n9.57
v7
v11
o2
o2
o2
n0.8
v0
v0
v1
o2
o2
o2
n9.11
v0
v1
v11
o2
o2
o2
n4.36
v0
v2
v8
o2
o2
o2
n9.45
v0
v3
v6
o2
o2
o2
n1.59
v0
v4
v8
o2
o2
o2
n7.14
v0
v5
v5
o2
o2
o2
n9.98
v0
v5
v7
o2
o2
o2
n6.65
v0
v6
v11
o2
o2
o2
n3.52
v0
v7
v7
o2
o2
o2
n7.42
v0
v7
v8
o2
o2
o2
n8.42
v0
v10
v10
o2
o2
o2
n7.64
v1
v2
v2
o2
o2
o2
n0.14
v1
v3
v11
o2
o2
o2
n0.31
v1
v4
v5
o2
o2
o2
n9.61
v1
v4
v8
o2
o2
o2
n1.54
v1
v5
v11
o2
o2
o2
n1.44
v1
v6
v6
o2
o2
o2
n6.82
v1
v6
v7
o16
o2
o2
o2
n1.84
v1
v11
v11
o2
o2
o2
n5.17
v2
v2
v2
o16
o2
o2
o2
n9.23
v2
v2
v4
o2
o2
o2
n6.8
v2
v2
v9
o2
o2
o2
n5.22
v2
v3
v10
o2
o2
o2
n4.36
v2
v4
v4
o16
o2
o2
o2
n8.75
v2
v4
v5
o2
o2
o2
n3.29
v2
v4
v10
o2
o2
o2
n1.42
v2
v5
v6
o2
o2
o2
n1.43
v2
v7
v7
o2
o2
o2
n6.48
v2
v7
v9
o2
o2
o2
n3.25
v2
v7
v11
o2
o2
o2
n9.65
v2
v9
v9
o2
o2
o2
n9.06
v3
v4
v11
o2
o2
o2
n4.29
v3
v5
v7
o2
o2
o2
n4.45
v3
v5
v10
o2
o2
o2
n8.9
v3
v7
v9
o16
o2
o2
o2
n0.27
v3
v9
v11
o2
o2
o2
n9.75
v4
v7
v9
o16
o2
o2
o2
n8.6
v4
v10
v10
o2
o2
o2
n6.37
v5
v5
v6
o2
o2
o2
n4.73
v5
v6
v10
o2
o2
o2
n2.77
v5
v9
v10
o2
o2
o2
n0.83
v6
v6
v9
o2
o2
o2
n2.23
v6
v8
v8
o2
o2
o2
n1.29
v6
v8
v10
o16
o2
o2
o2
n8.41
v6
v9
v10
o16
o2
o2
o2
n5.29
v7
v10
v11
o2
o2
o2
n0.61
v8
v8
v10
o2
o2
o2
o2
n6.77
v0
v0
v0
v10
o2
o2
o2
o2
n6.03
v0
v0
v1
v8
o16
o2
o2
o2
o2
n7.13
v0
v0
v3
v7
o2
o2
o2
o2
n6.79
v0
v0
v4
v5
o2
o2
o2
o2
n1.02
v0
v0
v4
v9
o2
o2
o2
o2
n4.59
v0
v0
v4
v10
o16
o2
o2
o2
o2
n0.58
v0
v0
v5
v5
o2
o2
o2
o2
n0.71
v0
v0
v5
v11
o16
o2
o2
o2
o2
n8.19
v0
v0
v7
v10
o2
o2
o2
o2
n4.29
v0
v0
v10
v10
o2
o2
o2
o2
n3.45
v0
v1
v1
v4
o16
o2
o2
o2
o2
n6.65
v0
v1
v1
v10
o2
o2
o2
o2
n4.26
v0
v1
v7
v7
o2
o2
o2
o2
n4.41
v0
v1
v8
v9
o2
o2
o2
o2
n7.73
v0
v1
v8
v10
o2
o2
o2
o2
n9.29
v0
v1
v9
v9
o2
o2
o2
o2
n0.86
v0
v2
v2
v5
o16
o2
o2
o2
o2
n7.4
v0
v2
v4
v9
o2
o2
o2
o2
n6.56
v0
v2
v7
v8
o2
o2
o2
o2
n5.83
v0
v2
v8
v10
o2
o2
o2
o2
n5.26
v0
v2
v8
v11
o16
o2
o2
o2
o2
n9.26
v0
v3
v4
v5
o2
o2
o2
o2
n7.32
v0
v3
v10
v11
o16
o2
o2
o2
o2
n4.56
v0
v4
v4
v4
o2
o2
o2
o2
n6.72
v0
v4
v5
v8
o2
o2
o2
o2
n6.1
v0
v4
v5
v10
o2
o2
o2
o2
n1.13
v0
v4
v10
v10
o2
o2
o2
o2
n9.53
v0
v4
v10
v11
o2
o2
o2
o2
n8.98
v0
v5
v5
v6
o2
o2
o2
o2
n7.02
v0
v5
v7
v11
o2
o2
o2
o2
n8.45
v0
v6
v7
v8
o2
o2
o2
o2
n1.55
v0
v6
v8
v10
o16
o2
o2
o2
o2
n9.08
v0
v6
v9
v9
o2
o2
o2
o2
n3.22
v0
v6
v10
v10
o2
o2
o2
o2
n1.01
v0
v9
v9
v11
o2
o2
o2
o2
n5.4
v0
v11
v11
v11
o2
o2
o2
o2
n2.37
v1
v1
v1
v6
o2
o2
o2
o2
n3.33
v1
v1
v1
v10
o2
o2
o2
o2
n9.99
v1
v1
v9
v10
o2
o2
o2
o2
n3.33
v1
v2
v4
v6
o2
o2
o2
o2
n3.84
v1
v2
v4
v9
o2
o2
o2
o2
n5.02
v1
v2
v5
v10
o2
o2
o2
o2
n0.43
v1
v2
v6
v7
o2
o2
o2
o2
n4.77
v1
v2
v6
v10
o2
o2
o2
o2
n5.61
v1
v2
v8
v8
o2
o2
o2
o2
n2.84
v1
v2
v9
v10
o2
o2
o2
o2
n1.88
v1
v2
v10
v10
o2
o2
o2
o2
n2.31
v1
v3
v3
v3
o2
o2
o2
o2
n0.75
v1
v3
v4
v8
o2
o2
o2
o2
n2.35
v1
v3
v6
v8
o2
o2
o2
o2
n5.31
v1
v3
v7
v10
o2
o2
o2
o2
n3.92
v1
v4
v4
v9
o2
o2
o2
o2
n3.33
v1
v4
v5
v5
o2
o2
o2
o2
n0.44
v1
v4
v6
v8
o2
o2
o2
o2
n6.3
v1
v5
v5
v8
o2
o2
o2
o2
n1.46
v1
v5
v6
v8
o2
o2
o2
o2
n4.66
v1
v5
v9
v9
o2
o2
o2
o2
n1.96
v1
v6
v7
v8
o2
o2
o2
o2
n4.45
v1
v6
v7
v9
o16
o2
o2
o2
o2
n5.34
v1
v6
v9
v9
o2
o2
o2
o2
n5.89
v1
v6
v11
v11
o2
o2
o2
o2
n2.54
v1
v7
v7
v7
o16
o2
o2
o2
o2
n9.02
v1
v8
v9
v11
o2
o2
o2
o2
n5.56
v1
v9
v10
v10
o2
o2
o2
o2
n6.76
v1
v9
v10
v11
o2
o2
o2
o2
n7.72
v2
v2
v3
v4
o2
o2
o2
o2
n0.84
v2
v2
v3
v6
o2
o2
o2
o2
n8.92
v2
v2
v7
v11
o2
o2
o2
o2
n0.64
v2
v3
v5
v8
o2
o2
o2
o2
n8.29
v2
v3
v10
v11
o2
o2
o2
o2
n0.54
v2
v4
v4
v4
o2
o2
o2
o2
n2.47
v2
v4
v6
v9
o2
o2
o2
o2
n5.85
v2
v4
v8
v9
o2
o2
o2
o2
n1.89
v2
v6
v7
v7
o2
o2
o2
o2
n2.86
v2
v6
v7
v9
o2
o2
o2
o2
n3.27
v2
v6
v8
v10
o2
o2
o2
o2
n3.14
v2
v8
v8
v8
o2
o2
o2
o2
n0.85
v3
v3
v4
v5
o2
o2
o2
o2
n7.42
v3
v3
v4
v11
o2
o2
o2
o2
n4.35
v3
v3
v6
v6
o16
o2
o2
o2
o2
n9.55
v3
v4
v6
v9
o2
o2
o2
o2
n6.34
v3
v4
v6
v10
o2
o2
o2
o2
n5.56
v3
v4
v7
v7
o2
o2
o2
o2
n6.94
v3
v4
v7
v9
o2
o2
o2
o2
n8.41
v3
v4
v8
v10
o2
o2
o2
o2
n8.64
v3
v6
v6
v10
o2
o2
o2
o2
n3.53
v3
v7
v7
v8
o2
o2
o2
o2
n8.94
v3
v7
v8
v9
o2
o2
o2
o2
n5.62
v3
v7
v9
v10
o2
o2
o2
o2
n3.83
v3
v8
v10
v10
o2
o2
o2
o2
n1.9
v4
v4
v5
v11
o2
o2
o2
o2
n9.67
v4
v4
v8
v9
o2
o2
o2
o2
n2.21
v4
v6
v8
v11
o16
o2
o2
o2
o2
n6.57
v4
v7
v8
v8
o2
o2
o2
o2
n1.23
v4
v7
v9
v9
o2
o2
o2
o2
n0.8
v4
v7
v9
v10
o2
o2
o2
o2
n3.13
v4
v8
v9
v9
o2
o2
o2
o2
n9.24
v4
v8
v9
v10
o2
o2
o2
o2
n3.98
v4
v11
v11
v11
o2
o2
o2
o2
n3.62
v5
v5
v5
v5
o2
o2
o2
o2
n2.27
v5
v5
v6
v6
o2
o2
o2
o2
n7.31
v5
v5
v8
v8
o2
o2
o2
o2
n2.69
v5
v5
v11
v11
o2
o2
o2
o2
n2.53
v5
v6
v6
v8
o2
o2
o2
o2
n3.76
v5
v7
v7
v10
o2
o2
o2
o2
n0.86
v5
v8
v8
v9
o2
o2
o2
o2
n4.35
v5
v9
v9
v10
o2
o2
o2
o2
n4.69
v5
v9
v11
v11
o2
o2
o2
o2
n9.53
v6
v6
v6
v9
o2
o2
o2
o2
n2.53
v6
v6
v9
v9
o2
o2
o2
o2
n1.11
v6
v7
v7
v7
o16
o2
o2
o2
o2
n6.07
v6
v8
v9
v9
o2
o2
o2
o2
n3.06
v6
v8
v11
v11
o2
o2
o2
o2
n1.57
v6
v9
v10
v11
o2
o2
o2
o2
n7.18
v7
v7
v7
v8
o2
o2
o2
o2
n3.66
v7
v7
v8
v9
o16
o2
o2
o2
o2
n9.43
v7
v7
v10
v11
o2
o2
o2
o2
n4.18
v7
v8
v8
v8
o2
o2
o2
o2
n1.98
v7
v8
v11
v11
o2
o2
o2
o2
n3.92
v8
v8
v9
v11
o2
o2
o2
o2
n1.63
v8
v9
v9
v9
o2
o2
o2
o2
n0.14
v9
v9
v10
v10
o2
o2
o2
o2
n9.58
v9
v10
v10
v10
C3
o54
11
o2
o2
n7.84
v0
v10
o2
o2
n0.31
v1
v5
o2
o2
n2.39
v2
v3
o2
o2
n9.66
v2
v11
o2
o2
n8.28
v3
v9
o2
o2
n9.76
v4
v8
o2
o2
n4.37
v5
v5
o2
o2
n8.61
v5
v6
o2
o2
n8.99
v5
v9
o2
o2
n8.74
v6
v10
o2
o2
n1.44
v7
v11
C4
n0
C5
n0
C6
n0
C7
n0
C8
n0
O0 0
o54
181
o2
o2
n0.91
v0
v10
o2
o2
n3.15
v1
v5
o16
o2
o2
n0.47
v2
v3
o2
o2
n0.76
v2
v11
o2
o2
n6.6
v3
v9
o2
o2
n5.89
v4
v8
o2
o2
n6.99
v5
v5
o2
o2
n0.78
v5
v6
o2
o2
n9.52
v5
v9
o2
o2
n3.97
v6
v10
o2
o2
n9.16
v7
v11
o2
o2
o2
n4.83
v0
v0
v1
o2
o2
o2
n1.94
v0
v1
v11
o16
o2
o2
o2
n1.68
v0
v2
v8
o16
o2
o2
o2
n9.98
v0
v3
v6
o2
o2
o2
n9.82
v0
v4
v8
o2
o2
o2
n6.74
v0
v5
v5
o2
o2
o2
n1.25
v0
v5
v7
o2
o2
o2
n6.55
v0
v6
v11
o2
o2
o2
n2.43
v0
v7
v7
o2
o2
o2
n7.29
v0
v7
v8
o2
o2
o2
n1.83
v0
v10
v10
o16
o2
o2
o2
n0.65
v1
v2
v2
o2
o2
o2
n3.69
v1
v3
v11
o2
o2
o2
n8.58
v1
v4
v5
o2
o2
o2
n9.67
v1
v4
v8
o2
o2
o2
n0.46
v1
v5
v11
o2
o2
o2
n4.81
v1
v6
v6
o2
o2
o2
n9.61
v1
v6
v7
o2
o2
o2
n9.56
v1
v11
v11
o2
o2
o2
n3.58
v2
v2
v2
o16
o2
o2
o2
n4.22
v2
v2
v4
o2
o2
o2
n7.01
v2
v2
v9
o2
o2
o2
n7.54
v2
v3
v10
o2
o2
o2
n1.28
v2
v4
v4
o2
o2
o2
n5.92
v2
v4
v5
o2
o2
o2
n9.93
v2
v4
v10
o2
o2
o2
n4.83
v2
v5
v6
o2
o2
o2
n4
v2
v7
v7
o2
o2
o2
n9.02
v2
v7
v9
o16
o2
o2
o2
n6.19
v2
v7
v11
o2
o2
o2
n3.03
v2
v9
v9
o2
o2
o2
n8.13
v3
v4
v11
o2
o2
o2
n8.61
v3
v5
v7
o2
o2
o2
n9.62
v3
v5
v10
o2
o2
o2
n0.58
v3
v7
v9
o2
o2
o2
n4.01
v3
v9
v11
o2
o2
o2
n7.76
v4
v7
v9
o2
o2
o2
n8.75
v4
v10
v10
o2
o2
o2
n0.42
v5
v5
v6
o2
o2
o2
n5.18
v5
v6
v10
o16
o2
o2
o2
n0.91
v5
v9
v10
o2
o2
o2
n6.64
v6
v6
v9
o2
o2
o2
n8.99
v6
v8
v8
o2
o2
o2
n8.89
v6
v8
v10
o2
o2
o2
n8.4
v6
v9
v10
o2
o2
o2
n2.03
v7
v10
v11
o2
o2
o2
n6.36
v8
v8
v10
o2
o2
o2
o2
n7.85
v0
v0
v0
v10
o2
o2
o2
o2
n2.3
v0
v0
v1
v8
o2
o2
o2
o2
n1.75
v0
v0
v3
v7
o16
o2
o2
o2
o2
n7.73
v0
v0
v4
v5
o2
o2
o2
o2
n3.28
v0
v0
v4
v9
o2
o2
o2
o2
n3.47
v0
v0
v4
v10
o2
o2
o2
o2
n4.32
v0
v0
v5
v5
o2
o2
o2
o2
n6.1
v0
v0
v5
v11
o2
o2
o2
o2
n9.09
v0
v0
v7
v10
o2
o2
o2
o2
n9.91
v0
v0
v10
v10
o16
o2
o2
o2
o2
n4.84
v0
v1
v1
v4
o2
o2
o2
o2
n6.21
v0
v1
v1
v10
o2
o2
o2
o2
n7.48
v0
v1
v7
v7
o2
o2
o2
o2
n6.29
v0
v1
v8
v9
o2
o2
o2
o2
n1.13
v0
v1
v8
v10
o16
o2
o2
o2
o2
n9.76
v0
v1
v9
v9
o2
o2
o2
o2
n5.62
v0
v2
v2
v5
o2
o2
o2
o2
n4.8
v0
v2
v4
v9
o2
o2
o2
o2
n1.09
v0
v2
v7
v8
o2
o2
o2
o2
n1.82
v0
v2
v8
v10
o2
o2
o2
o2
n3.69
v0
v2
v8
v11
o2
o2
o2
o2
n7.21
v0
v3
v4
v5
o2
o2
o2
o2
n1.39
v0
v3
v10
v11
o2
o2
o2
o2
n8.58
v0
v4
v4
v4
o2
o2
o2
o2
n4.16
v0
v4
v5
v8
o2
o2
o2
o2
n8.21
v0
v4
v5
v10
o2
o2
o2
o2
n7.29
v0
v4
v10
v10
o2
o2
o2
o2
n6.21
v0
v4
v10
v11
o2
o2
o2
o2
n2.25
v0
v5
v5
v6
o2
o2
o2
o2
n9.93
v0
v5
v7
v11
o2
o2
o2
o2
n3.79
v0
v6
v7
v8
o2
o2
o2
o2
n1.15
v0
v6
v8
v10
o2
o2
o2
o2
n7.72
v0
v6
v9
v9
o2
o2
o2
o2
n7.8
v0
v6
v10
v10
o2
o2
o2
o2
n8.04
v0
v9
v9
v11
o2
o2
o2
o2
n1.49
v0
v11
v11
v11
o2
o2
o2
o2
n7.88
v1
v1
v1
v6
o2
o2
o2
o2
n7.64
v1
v1
v1
v10
o2
o2
o2
o2
n2.94
v1
v1
v9
v10
o2
o2
o2
o2
n9.69
v1
v2
v4
v6
o16
o2
o2
o2
o2
n1.83
v1
v2
v4
v9
o2
o2
o2
o2
n3.93
v1
v2
v5
v10
o2
o2
o2
o2
n2.05
v1
v2
v6
v7
o2
o2
o2
o2
n6.53
v1
v2
v6
v10
o2
o2
o2
o2
n5.97
v1
v2
v8
v8
o2
o2
o2
o2
n9.39
v1
v2
v9
v10
o2
o2
o2
o2
n5.67
v1
v2
v10
v10
o2
o2
o2
o2
n6.28
v1
v3
v3
v3
o2
o2
o2
o2
n0.78
v1
v3
v4
v8
o2
o2
o2
o2
n5.85
v1
v3
v6
v8
o2
o2
o2
o2
n8.32
v1
v3
v7
v10
o2
o2
o2
o2
n3.17
v1
v4
v4
v9
o2
o2
o2
o2
n8.79
v1
v4
v5
v5
o2
o2
o2
o2
n6.24
v1
v4
v6
v8
o2
o2
o2
o2
n7.27
v1
v5
v5
v8
o2
o2
o2
o2
n9.09
v1
v5
v6
v8
o2
o2
o2
o2
n3.88
v1
v5
v9
v9
o2
o2
o2
o2
n8
v1
v6
v7
v8
o2
o2
o2
o2
n2.48
v1
v6
v7
v9
o2
o2
o2
o2
n2.5
v1
v6
v9
v9
o16
o2
o2
o2
o2
n1.75
v1
v6
v11
v11
o2
o2
o2
o2
n7.57
v1
v7
v7
v7
o2
o2
o2
o2
n7.72
v1
v8
v9
v11
o2
o2
o2
o2
n8.68
v1
v9
v10
v10
o2
o2
o2
o2
n1.71
v1
v9
v10
v11
o2
o2
o2
o2
n6.26
v2
v2
v3
v4
o2
o2
o2
o2
n2.95
v2
v2
v3
v6
o2
o2
o2
o2
n1.11
v2
v2
v7
v11
o2
o2
o2
o2
n9.67
v2
v3
v5
v8
o2
o2
o2
o2
n7.3
v2
v3
v10
v11
o2
o2
o2
o2
n7.97
v2
v4
v4
v4
o2
o2
o2
o2
n4.21
v2
v4
v6
v9
o2
o2
o2
o2
n2.39
v2
v4
v8
v9
o2
o2
o2
o2
n4.17
v2
v6
v7
v7
o2
o2
o2
o2
n7.27
v2
v6
v7
v9
o2
o2
o2
o2
n7.29
v2
v6
v8
v10
o2
o2
o2
o2
n3
v2
v8
v8
v8
o2
o2
o2
o2
n0.16
v3
v3
v4
v5
o2
o2
o2
o2
n6.18
v3
v3
v4
v11
o2
o2
o2
o2
n9.72
v3
v3
v6
v6
o16
o2
o2
o2
o2
n7.77
v3
v4
v6
v9
o2
o2
o2
o2
n9.2
v3
v4
v6
v10
o2
o2
o2
o2
n8.28
v3
v4
v7
v7
o2
o2
o2
o2
n7.37
v3
v4
v7
v9
o2
o2
o2
o2
n4.09
v3
v4
v8
v10
o2
o2
o2
o2
n7.92
v3
v6
v6
v10
o2
o2
o2
o2
n3.97
v3
v7
v7
v8
o2
o2
o2
o2
n0.34
v3
v7
v8
v9
o2
o2
o2
o2
n9.75
v3
v7
v9
v10
o2
o2
o2
o2
n8.99
v3
v8
v10
v10
o2
o2
o2
o2
n0.42
v4
v4
v5
v11
o2
o2
o2
o2
n1.87
v4
v4
v8
v9
o2
o2
o2
o2
n3.44
v4
v6
v8
v11
o2
o2
o2
o2
n5.66
v4
v7
v8
v8
o2
o2
o2
o2
n2.65
v4
v7
v9
v9
o2
o2
o2
o2
n8.57
v4
v7
v9
v10
o16
o2
o2
o2
o2
n6.5
v4
v8
v9
v9
o2
o2
o2
o2
n7.61
v4
v8
v9
v10
o2
o2
o2
o2
n5.95
v4
v11
v11
v11
o2
o2
o2
o2
n1.83
v5
v5
v5
v5
o2
o2
o2
o2
n5.94
v5
v5
v6
v6
o2
o2
o2
o2
n8.01
v5
v5
v8
v8
o2
o2
o2
o2
n9.5
v5
v5
v11
v11
o2
o2
o2
o2
n0.53
v5
v6
v6
v8
o2
o2
o2
o2
n8.68
v5
v7
v7
v10
o2
o2
o2
o2
n1.82
v5
v8
v8
v9
o2
o2
o2
o2
n1.23
v5
v9
v9
v10
o16
o2
o2
o2
o2
n5.01
v5
v9
v11
v11
o2
o2
o2
o2
n7.11
v6
v6
v6
v9
o2
o2
o2
o2
n5.4
v6
v6
v9
v9
o2
o2
o2
o2
n4
v6
v7
v7
v7
o2
o2
o2
o2
n2.21
v6
v8
v9
v9
o2
o2
o2
o2
n5.76
v6
v8
v11
v11
o16
o2
o2
o2
o2
n7.29
v6
v9
v10
v11
o2
o2
o2
o2
n2.94
v7
v7
v7
v8
o2
o2
o2
o2
n2.17
v7
v7
v8
v9
o2
o2
o2
o2
n9.39
v7
v7
v10
v11
o2
o2
o2
o2
n0.3
v7
v8
v8
v8
o2
o2
o2
o2
n4.1
v7
v8
v11
v11
o2
o2
o2
o2
n5.7
v8
v8
v9
v11
o2
o2
o2
o2
n2.2
v8
v9
v9
v9
o2
o2
o2
o2
n4.85
v9
v9
v10
v10
o2
o2
o2
o2
n4.33
v9
v10
v10
v10
k11
8
16
22
30
38
46
54
62
68
75
83
J0 12
0 -3.76
1 2.29
2 7.09
3 -0.38
4 9.97
5 9.17
6 8.13
7 -3.24
8 0.04
9 3.27
10 1.64
11 1.08
J1 12
0 7.68
1 6.86
2 1.48
3 7.71
4 0.37
5 0.71
6 2.44
7 2.73
8 4.24
9 6.51
10 6.98
11 -9.79
J2 12
0 9.79
1 8.08
2 7.87
3 0.62
4 9.25
5 -0.41
6 0.09
7 9.75
8 -2.74
9 4.27
10 8.4
11 9.43
J3 12
0 2.9
1 2.14
2 2.89
3 3.5
4 6.53
5 2.46
6 6.96
7 4.68
8 3.1
9 2.06
10 -5.25
11 5.03
J4 6
1 3.91
3 2.54
6 -3.73
7 8.99
10 3.51
11 4.26
J5 6
0 2.62
1 1.83
3 6.33
4 3.08
5 3.6
10 -4.13
J6 6
0 9.46
4 5.13
5 3.62
6 0.89
7 3.02
9 9.27
J7 12
0 3.94
1 3.26
2 9.69
3 4.24
4 0.76
5 9.21
6 9.6
7 7.42
8 3.23
9 5.49
10 2.67
11 5.03
J8 12
0 7.55
1 3.1
2 5.67
3 4.32
4 0.4
5 6.47
6 2.49
7 2.8
8 0.79
9 8.66
10 3.2
11 1.94
G0 12
0 1.04
1 0.73
2 1.48
3 1.47
4 4.6
5 1.45
6 8.88
7 5.39
8 -2.14
9 1.74
10 1.5
11 4.32
